c preprocessed version of celar05-wpp, 47 vertices, 271 edges
p td 47 271
0 1
0 16
0 12
0 15
0 13
0 22
0 25
0 23
0 20
0 24
0 38
0 5
0 19
30 0
21 0
2 1
1 3
1 8
1 16
1 9
1 12
1 19
1 22
1 39
1 20
1 38
1 10
1 14
1 23
30 1
21 1
2 3
2 16
2 12
2 19
2 13
2 23
2 24
2 14
21 2
3 4
7 3
3 16
3 9
3 10
3 20
3 8
3 22
30 3
21 3
5 4
6 4
7 4
8 4
4 9
4 10
4 11
30 4
21 4
5 6
5 7
5 10
5 11
5 22
5 19
5 38
6 7
6 11
6 38
7 8
7 9
7 10
7 11
32 7
8 9
8 10
8 38
8 22
21 8
9 10
9 11
9 25
30 9
21 9
33 9
34 9
10 11
10 25
33 10
34 10
12 11
11 22
11 20
11 38
21 11
36 11
12 13
12 22
12 23
12 24
30 12
21 12
13 14
13 22
13 23
13 24
21 13
15 14
14 20
16 15
15 19
15 20
15 38
21 15
16 17
16 39
16 31
16 20
16 38
21 16
32 16
17 18
17 26
17 25
30 17
37 17
21 17
32 17
18 19
18 26
18 25
30 18
37 18
21 18
19 20
19 38
30 19
21 19
21 20
20 38
21 22
21 23
21 24
21 25
21 38
21 39
30 21
37 21
29 21
22 23
23 24
26 25
30 25
25 31
37 25
27 26
28 26
30 26
37 26
29 26
28 27
29 27
33 27
32 27
29 28
34 28
32 28
30 29
37 29
30 31
30 37
32 30
32 31
33 32
34 32
35 32
32 36
33 34
33 35
33 36
34 35
34 36
36 35
40 1
40 2
40 5
40 6
40 3
40 8
40 16
40 41
40 42
40 12
40 22
40 43
40 44
40 45
40 14
40 24
40 4
40 11
40 46
40 30
40 21
41 46
41 18
41 45
41 21
41 26
41 43
41 44
41 42
41 30
41 35
42 46
42 45
42 21
42 30
42 43
42 44
42 35
43 46
43 1
43 45
43 44
43 39
44 46
44 1
44 45
44 21
44 39
45 46
45 0
45 1
45 2
45 6
45 4
45 16
45 13
45 8
45 9
45 10
45 31
45 11
45 12
45 22
45 23
45 24
45 21
45 36
46 0
46 1
46 2
46 5
46 6
46 4
46 3
46 16
46 19
46 15
46 14
46 8
46 9
46 10
46 11
46 12
46 22
46 23
46 21
46 20
46 38
